NAME: westernsahara.tour
COMMENT: Optimal tour for Western Sahara (length: 27603)
TYPE: TOUR
DIMENSION: 29
TOUR_SECTION
1
2
6
10
11
12
15
19
18
17
21
22
23
29
28
26
20
25
27
24
16
14
13
9
7
3
4
8
5
-1
EOF
